#######################



#######################
Set parameter TimeLimit to value 500
Set parameter SoftMemLimit to value 125
Set parameter MIPFocus to value 3
Set parameter LogFile to value 1202-MIPFocus3-Presolve2-TimeLimit500-k16x240-6.log
Set parameter Presolve to value 2
Set parameter Seed to value 16
Using license file /opt/gurobi/gurobi.lic

Gurobi Optimizer version 12.0.2 build v12.0.2rc0 (linux64 - "Ubuntu 22.04.4 LTS")
Copyright (c) 2025, Gurobi Optimization, LLC

Read MPS format model from file /miplib2010/k16x240.mps.bz2
Reading time = 0.00 seconds
k16x240: 256 rows, 480 columns, 960 nonzeros

Using Gurobi shared library /nfs/shared/static-builds/gurobi1202

CPU model: Intel(R) Xeon(R) E-2388G CPU @ 3.20GHz, instruction set [SSE2|AVX|AVX2|AVX512]
Thread count: 8 physical cores, 16 logical processors, using up to 16 threads

Non-default parameters:
TimeLimit  500
SoftMemLimit  125
MIPFocus  3
Presolve  2
Seed  16

Optimize a model with 256 rows, 480 columns and 960 nonzeros
Model fingerprint: 0x4e80885f
Variable types: 240 continuous, 240 integer (240 binary)
Coefficient statistics:
  Matrix range     [1e+00, 1e+03]
  Objective range  [1e+00, 1e+03]
  Bounds range     [1e+00, 1e+03]
  RHS range        [4e+00, 4e+02]
Found heuristic solution: objective 20319.000000
Presolve time: 0.00s
Presolved: 256 rows, 480 columns, 960 nonzeros
Variable types: 240 continuous, 240 integer (240 binary)
Root relaxation presolve removed 241 rows and 240 columns
Root relaxation presolved: 15 rows, 240 columns, 450 nonzeros


Root relaxation: objective 2.769838e+03, 16 iterations, 0.00 seconds (0.00 work units)

    Nodes    |    Current Node    |     Objective Bounds      |     Work
 Expl Unexpl |  Obj  Depth IntInf | Incumbent    BestBd   Gap | It/Node Time

     0     0 2769.83800    0   14 20319.0000 2769.83800  86.4%     -    0s
H    0     0                    11359.000000 2769.83800  75.6%     -    0s
H    0     0                    11259.000000 2769.83800  75.4%     -    0s
H    0     0                    11204.000000 2769.83800  75.3%     -    0s
H    0     0                    11174.000000 8116.87580  27.4%     -    0s
H    0     0                    11110.000000 8116.87580  26.9%     -    0s
     0     0 8116.87580    0   26 11110.0000 8116.87580  26.9%     -    0s
H    0     0                    11097.000000 8182.85928  26.3%     -    0s
H    0     0                    11077.000000 8182.85928  26.1%     -    0s
H    0     0                    11061.000000 8182.85928  26.0%     -    0s
     0     0 8590.83212    0   23 11061.0000 8590.83212  22.3%     -    0s
     0     0 8748.93137    0   20 11061.0000 8748.93137  20.9%     -    0s
     0     0 8791.28017    0   21 11061.0000 8791.28017  20.5%     -    0s
     0     0 8799.12327    0   18 11061.0000 8799.12327  20.4%     -    0s
H    0     0                    11001.000000 8799.12327  20.0%     -    0s
     0     0 8934.44177    0   36 11001.0000 8934.44177  18.8%     -    0s
H    0     0                    10995.000000 8934.94527  18.7%     -    0s
H    0     0                    10915.000000 8934.94527  18.1%     -    0s
     0     0 8944.75636    0   34 10915.0000 8944.75636  18.1%     -    0s
     0     0 8948.17115    0   38 10915.0000 8948.17115  18.0%     -    0s
     0     0 9144.32214    0   35 10915.0000 9144.32214  16.2%     -    0s
     0     0 9144.32214    0   35 10915.0000 9144.32214  16.2%     -    0s
H    0     0                    10861.000000 9144.32214  15.8%     -    0s
H    0     0                    10765.000000 9144.32214  15.1%     -    0s
H    0     0                    10681.000000 9144.32214  14.4%     -    0s
     0     2 9144.32214    0   35 10681.0000 9144.32214  14.4%     -    0s
H   26    61                    10674.000000 9256.55038  13.3%  83.2    0s
  4780  3103 10391.3027   26   28 10674.0000 10303.0729  3.48%  77.8    5s
 19075  7451     cutoff   25      10674.0000 10534.4780  1.31%  54.3   10s

Cutting planes:
  Lift-and-project: 8
  Implied bound: 8
  Dual implied bound: 2
  MIR: 161
  Mixing: 1
  Flow cover: 491
  Flow path: 33
  Zero half: 24
  Network: 27

Explored 36126 nodes (1363413 simplex iterations) in 12.19 seconds (18.18 work units)
Thread count was 16 (of 16 available processors)

Solution count 10: 10674 10681 10765 ... 11097

Optimal solution found (tolerance 1.00e-04)
Best objective 1.067400000000e+04, best bound 1.067300000000e+04, gap 0.0094%
